************************************************************************
file with basedata            : j60_62.bas
initial value random generator: 4760
************************************************************************
projects                      :  1
jobs (incl. supersource/sink ):  62
horizon                       :  320
RESOURCES
  - renewable                 :  4   R
  - nonrenewable              :  0   N
  - doubly constrained        :  0   D
************************************************************************
PROJECT INFORMATION:
pronr.  #jobs rel.date duedate tardcost  MPM-Time
    1     60      0       78       40       78
************************************************************************
PRECEDENCE RELATIONS:
jobnr.    #modes  #successors   successors
   1        1          3           2   3   4
   2        1          3           5   7  15
   3        1          3           6  10  44
   4        1          3          14  23  52
   5        1          3          25  41  45
   6        1          3           8   9  11
   7        1          3          19  20  26
   8        1          3          12  33  39
   9        1          3          40  43  50
  10        1          3          13  17  46
  11        1          3          12  17  26
  12        1          3          16  32  34
  13        1          3          21  38  54
  14        1          2          18  21
  15        1          2          16  17
  16        1          1          43
  17        1          3          22  23  32
  18        1          3          30  44  51
  19        1          1          56
  20        1          3          28  31  56
  21        1          3          35  36  40
  22        1          3          24  27  51
  23        1          3          28  30  36
  24        1          2          31  36
  25        1          3          30  33  47
  26        1          2          29  32
  27        1          3          28  37  42
  28        1          3          38  41  43
  29        1          3          33  47  49
  30        1          2          53  57
  31        1          3          35  38  39
  32        1          2          45  53
  33        1          2          34  52
  34        1          3          35  46  56
  35        1          2          37  48
  36        1          3          37  42  53
  37        1          1          59
  38        1          2          45  49
  39        1          3          40  48  52
  40        1          2          41  42
  41        1          1          59
  42        1          2          49  55
  43        1          2          47  59
  44        1          1          57
  45        1          1          50
  46        1          3          50  51  55
  47        1          2          48  60
  48        1          1          55
  49        1          1          60
  50        1          1          61
  51        1          1          54
  52        1          2          54  57
  53        1          1          58
  54        1          1          58
  55        1          1          58
  56        1          1          61
  57        1          1          60
  58        1          1          61
  59        1          1          62
  60        1          1          62
  61        1          1          62
  62        1          0        
************************************************************************
REQUESTS/DURATIONS:
jobnr. mode duration  R 1  R 2  R 3  R 4
------------------------------------------------------------------------
  1      1     0       0    0    0    0
  2      1     4       3    7   10   10
  3      1     2       2    7    2   10
  4      1     5      10    8    7    9
  5      1     6       8    1    7    5
  6      1     4       6    4    3    4
  7      1     7       6    2    1   10
  8      1     2       1    4    8    6
  9      1     1       9    4    6    8
 10      1     9       6    6    7    6
 11      1     2       4    7    7    8
 12      1     7       5    8   10    7
 13      1     7       6    9   10    4
 14      1     1       6    8    6    1
 15      1    10       4    5    5    4
 16      1     4       8    8    2    1
 17      1     6       5    4    4   10
 18      1     1       5    8    6    8
 19      1    10       5    1    3    4
 20      1    10       4   10    7    6
 21      1    10       2    2    8   10
 22      1     3       2    6    8    8
 23      1     4       2    7    8    9
 24      1     1       3    7    7    1
 25      1     6       3    9    9    2
 26      1     6      10    8    6    9
 27      1     9       8    9    6    7
 28      1     3       7    7    9    5
 29      1     6       8    8    8    9
 30      1     6       4    3    1    2
 31      1     4       1    6    3   10
 32      1     9       1    5    9    9
 33      1     1       5    1   10    8
 34      1     6       8    3   10    1
 35      1     8       7    8    7    6
 36      1     8       5    3    5    8
 37      1     4       7    9   10    4
 38      1     2       5    2    1    3
 39      1     8       4    5    7    4
 40      1     1      10    9    9    9
 41      1     7       6    2    8    4
 42      1    10       1    6    8    5
 43      1     7       2    7    5    9
 44      1     1       4    2    7    3
 45      1     2       7    9    8    8
 46      1     9       5   10    9    5
 47      1     6       6    8    4    5
 48      1     3       8    5    5    7
 49      1     3       2    8    4    2
 50      1     9      10    6    3    3
 51      1     1       3    1    9    9
 52      1     4       2    4    7    8
 53      1     8       5   10   10    6
 54      1     9       1    2    2    2
 55      1    10       6    5    3    7
 56      1     2       3    9    3    9
 57      1     7       5    7    2    6
 58      1     9       9   10    1    2
 59      1     1      10    6    4    1
 60      1     1       9    8    5   10
 61      1     8       5    3    5    4
 62      1     0       0    0    0    0
************************************************************************
RESOURCEAVAILABILITIES:
  R 1  R 2  R 3  R 4
   27   34   38   33
************************************************************************
